100
100
99
98
97
96
96
95
94
93
93
92
92
90
90
89
89
88
88
88
88
86
86
85
83
82
82
80
80
80
79
79
77
77
77
76
76
76
74
73
73
71
71
70
69
69
69
68
68
67
66
66
65
63
60
59
57
57
57
57
56
53
53
52
51
51
51
51
50
47
46
45
44
44
44
43
42
42
39
39
38
38
38
37
36
36
36
32
31
30
28
28
27
27
27
26
26
24
24
22
22
20
